4 10 50 1 2
0 200
 1 40.00 50.00 0.00 0.00 0.00 0 0 0 1236
 2 45.00 68.00 90.00 10.00 10.00 1 1 1 890 989
 3 45.00 70.00 90.00 30.00 20.00 1 1 1 816 879
 4 42.00 66.00 90.00 10.00 30.00 1 1 1 55 156
 5 42.00 68.00 90.00 10.00 30.00 1 1 1 703 806
 6 42.00 65.00 90.00 10.00 10.00 1 1 1 15 60
 7 40.00 69.00 90.00 20.00 10.00 1 1 1 559 764
 8 40.00 66.00 90.00 20.00 30.00 1 1 1 172 223
 9 38.00 68.00 90.00 20.00 10.00 1 1 1 250 329
 10 38.00 70.00 90.00 10.00 10.00 1 1 1 489 650
 11 35.00 66.00 90.00 10.00 20.00 1 1 1 361 406
 12 35.00 69.00 90.00 10.00 10.00 1 1 1 450 503
 13 25.00 85.00 90.00 20.00 20.00 1 1 1 647 726
 14 22.00 75.00 90.00 30.00 10.00 1 1 1 30 95
 15 22.00 85.00 90.00 10.00 40.00 1 1 1 571 616
 16 20.00 80.00 90.00 40.00 10.00 1 1 1 392 421
 17 20.00 85.00 90.00 40.00 10.00 1 1 1 478 525
 18 18.00 75.00 90.00 20.00 10.00 1 1 1 105 142
 19 15.00 75.00 90.00 20.00 10.00 1 1 1 172 261
 20 15.00 80.00 90.00 10.00 40.00 1 1 1 274 349
 21 30.00 50.00 90.00 10.00 20.00 1 1 1 10 77
 22 30.00 52.00 90.00 20.00 40.00 1 1 1 918 961
 23 28.00 52.00 90.00 20.00 10.00 1 1 1 806 889
 24 28.00 55.00 90.00 10.00 20.00 1 1 1 739 770
 25 25.00 50.00 90.00 10.00 10.00 1 1 1 55 154
 26 25.00 52.00 90.00 40.00 10.00 1 1 1 172 221
 27 25.00 55.00 90.00 10.00 30.00 1 1 1 612 711
 28 23.00 52.00 90.00 10.00 20.00 1 1 1 264 313
 29 23.00 55.00 90.00 20.00 10.00 1 1 1 553 586
 30 20.00 50.00 90.00 10.00 10.00 1 1 1 365 398
 31 20.00 55.00 90.00 10.00 10.00 1 1 1 452 501
 32 10.00 35.00 90.00 20.00 10.00 1 1 1 204 233
 33 10.00 40.00 90.00 30.00 20.00 1 1 1 31 189
 34 8.00 40.00 90.00 40.00 10.00 1 1 1 42 203
 35 8.00 45.00 90.00 20.00 40.00 1 1 1 715 852
 36 5.00 35.00 90.00 10.00 10.00 1 1 1 251 376
 37 5.00 45.00 90.00 10.00 20.00 1 1 1 648 733
 38 2.00 40.00 90.00 20.00 20.00 1 1 1 365 452
 39 0.00 40.00 90.00 30.00 20.00 1 1 1 474 527
 40 0.00 45.00 90.00 20.00 10.00 1 1 1 541 650
 41 35.00 30.00 90.00 10.00 10.00 1 1 1 240 345
 42 35.00 32.00 90.00 10.00 20.00 1 1 1 123 278
 43 33.00 32.00 90.00 20.00 30.00 1 1 1 19 225
 44 33.00 35.00 90.00 10.00 10.00 1 1 1 16 153
 45 32.00 30.00 90.00 10.00 10.00 1 1 1 338 433
 46 30.00 30.00 90.00 10.00 10.00 1 1 1 513 628
 47 30.00 32.00 90.00 30.00 10.00 1 1 1 415 542
 48 30.00 35.00 90.00 10.00 20.00 1 1 1 872 1127
 49 28.00 30.00 90.00 10.00 20.00 1 1 1 599 726
 50 28.00 35.00 90.00 10.00 10.00 1 1 1 917 1126
 51 26.00 32.00 90.00 10.00 20.00 1 1 1 779 916
